sat
(:max-memory          17.47
 :memory              17.38
 :num-allocs          23584
 :rlimit-count        1171
 :sls-constraints     106
 :sls-ddfw-flips      68.00
 :sls-ddfw-shifts     12.00
 :sls-dt-axioms       80
 :sls-euf-conflict    5
 :solve-eqs-elim-vars 1
 :solve-eqs-steps     4
 :total-time          0.00)
